c ind 1 2 3 4 5 6 7 8 9 10 11 12 13 14 15 16 17 0
p cnf 88 110                
-6 1 -18 0
18 -23 0
-7 2 -19 0
19 -23 0
-8 3 -20 0
20 -23 0
-9 4 -21 0
21 -23 0
-10 5 -22 0
22 -23 0
23 -32 0
6 7 8 9 10 11 -24 0
24 -32 0
-12 1 -25 0
25 -30 0
-13 2 -26 0
26 -30 0
-14 3 -27 0
27 -30 0
-15 4 -28 0
28 -30 0
-16 5 -29 0
29 -30 0
30 -32 0
12 13 14 15 16 17 -31 0
31 -32 0
32 42 0
17 -40 0
-12 6 -33 0
33 -39 0
-13 7 -34 0
34 -39 0
-14 8 -35 0
35 -39 0
-15 9 -36 0
36 -39 0
-16 10 -37 0
37 -39 0
-17 11 -38 0
38 -39 0
39 -40 0
40 41 0
-11 41 0
-41 42 0
-12 13 -43 0
43 -53 0
-12 -13 44 0
12 13 44 0
-13 13 44 0
-6 7 -45 0
-44 45 -46 0
46 -53 0
-6 -7 47 0
6 7 47 0
-7 7 47 0
-44 -47 48 0
-1 2 -49 0
-48 49 -50 0
50 -53 0
53 -87 0
-13 14 -54 0
54 -64 0
-13 -14 55 0
13 14 55 0
-14 14 55 0
-7 8 -56 0
-55 56 -57 0
57 -64 0
-7 -8 58 0
7 8 58 0
-8 8 58 0
-55 -58 59 0
-2 3 -60 0
-59 60 -61 0
61 -64 0
64 -87 0
-14 15 -65 0
65 -75 0
-14 -15 66 0
14 15 66 0
-15 15 66 0
-8 9 -67 0
-66 67 -68 0
68 -75 0
-8 -9 69 0
8 9 69 0
-9 9 69 0
-66 -69 70 0
-3 4 -71 0
-70 71 -72 0
72 -75 0
75 -87 0
-15 16 -76 0
76 -86 0
-15 -16 77 0
15 16 77 0
-16 16 77 0
-9 10 -78 0
-77 78 -79 0
79 -86 0
-9 -10 80 0
9 10 80 0
-10 10 80 0
-77 -80 81 0
-4 5 -82 0
-81 82 -83 0
83 -86 0
86 -87 0
-42 0
87 0
